
n_res = 6;
rcap = [84, 93, 85, 97, 883, 924];
rtype = [1, 1, 1, 1, 2, 2];
n_tasks = 50;
modes =  [{1, 2, 3, 4, 5, 6, 7, 8, 9}, {10, 11, 12, 13, 14, 15, 16, 17, 18}, {19, 20, 21, 22, 23, 24, 25, 26, 27}, {28, 29, 30, 31, 32, 33, 34, 35, 36}, {37, 38, 39, 40, 41, 42, 43, 44, 45}, {46, 47, 48, 49, 50, 51, 52, 53, 54}, {55, 56, 57, 58, 59, 60, 61, 62, 63}, {64, 65, 66, 67, 68, 69, 70, 71, 72}, {73, 74, 75, 76, 77, 78, 79, 80, 81}, {82, 83, 84, 85, 86, 87, 88, 89, 90}, {91, 92, 93, 94, 95, 96, 97, 98, 99}, {100, 101, 102, 103, 104, 105, 106, 107, 108}, {109, 110, 111, 112, 113, 114, 115, 116, 117}, {118, 119, 120, 121, 122, 123, 124, 125, 126}, {127, 128, 129, 130, 131, 132, 133, 134, 135}, {136, 137, 138, 139, 140, 141, 142, 143, 144}, {145, 146, 147, 148, 149, 150, 151, 152, 153}, {154, 155, 156, 157, 158, 159, 160, 161, 162}, {163, 164, 165, 166, 167, 168, 169, 170, 171}, {172, 173, 174, 175, 176, 177, 178, 179, 180}, {181, 182, 183, 184, 185, 186, 187, 188, 189}, {190, 191, 192, 193, 194, 195, 196, 197, 198}, {199, 200, 201, 202, 203, 204, 205, 206, 207}, {208, 209, 210, 211, 212, 213, 214, 215, 216}, {217, 218, 219, 220, 221, 222, 223, 224, 225}, {226, 227, 228, 229, 230, 231, 232, 233, 234}, {235, 236, 237, 238, 239, 240, 241, 242, 243}, {244, 245, 246, 247, 248, 249, 250, 251, 252}, {253, 254, 255, 256, 257, 258, 259, 260, 261}, {262, 263, 264, 265, 266, 267, 268, 269, 270}, {271, 272, 273, 274, 275, 276, 277, 278, 279}, {280, 281, 282, 283, 284, 285, 286, 287, 288}, {289, 290, 291, 292, 293, 294, 295, 296, 297}, {298, 299, 300, 301, 302, 303, 304, 305, 306}, {307, 308, 309, 310, 311, 312, 313, 314, 315}, {316, 317, 318, 319, 320, 321, 322, 323, 324}, {325, 326, 327, 328, 329, 330, 331, 332, 333}, {334, 335, 336, 337, 338, 339, 340, 341, 342}, {343, 344, 345, 346, 347, 348, 349, 350, 351}, {352, 353, 354, 355, 356, 357, 358, 359, 360}, {361, 362, 363, 364, 365, 366, 367, 368, 369}, {370, 371, 372, 373, 374, 375, 376, 377, 378}, {379, 380, 381, 382, 383, 384, 385, 386, 387}, {388, 389, 390, 391, 392, 393, 394, 395, 396}, {397, 398, 399, 400, 401, 402, 403, 404, 405}, {406, 407, 408, 409, 410, 411, 412, 413, 414}, {415, 416, 417, 418, 419, 420, 421, 422, 423}, {424, 425, 426, 427, 428, 429, 430, 431, 432}, {433, 434, 435, 436, 437, 438, 439, 440, 441}, {442, 443, 444, 445, 446, 447, 448, 449, 450}];
succ =  [{18, 13, 11, 4}, {18, 13, 11, 9}, {18, 15, 12, 11, 10}, {15, 12, 9}, {18, 15, 9}, {18, 15, 9}, {18, 15, 10}, {15, 9}, {10}, {17, 16, 14}, {17, 16, 14}, {25, 20, 17, 16}, {16, 15}, {28, 27, 25, 21, 20, 19}, {33, 29, 27, 26, 25, 24, 23, 21}, {29, 28, 26, 24, 22, 21}, {35, 33, 30, 28, 27, 24}, {26, 24, 22}, {26, 23, 22}, {24, 22}, {37, 36, 35, 31, 30}, {35, 33, 32, 30}, {42, 41, 35, 34, 32}, {42, 36, 34, 32}, {37, 36, 30}, {32, 31}, {50, 42, 36, 34}, {50, 37, 31}, {42, 34, 32}, {42, 41, 34}, {42, 34}, {50, 49, 39, 37}, {34}, {39, 38}, {50, 49, 46, 45, 43, 40}, {45, 41, 39}, {46, 45, 43}, {49, 45, 43}, {46, 40}, {48, 44}, {48, 44}, {49, 47}, {44}, {47}, {47}, {48}, {}, {}, {}, {}];
n_opt = 450;
dur = [6, 10, 15, 18, 19, 22, 26, 27, 28, 3, 4, 5, 10, 20, 23, 26, 27, 30, 3, 5, 6, 7, 8, 9, 11, 14, 22, 6, 7, 10, 18, 22, 23, 27, 28, 29, 2, 3, 11, 13, 16, 18, 24, 26, 27, 5, 6, 12, 15, 16, 22, 24, 25, 29, 1, 9, 11, 12, 13, 15, 17, 18, 30, 4, 6, 9, 14, 16, 19, 20, 26, 29, 1, 7, 10, 15, 16, 19, 21, 22, 23, 1, 2, 4, 9, 12, 26, 28, 29, 30, 1, 2, 4, 16, 17, 25, 28, 29, 30, 3, 5, 7, 9, 14, 15, 17, 21, 28, 2, 9, 10, 11, 16, 19, 26, 29, 30, 1, 6, 8, 10, 11, 18, 24, 25, 26, 1, 3, 8, 11, 14, 15, 23, 26, 28, 6, 7, 11, 15, 21, 24, 25, 27, 28, 2, 5, 6, 15, 16, 17, 23, 26, 29, 2, 15, 17, 18, 19, 24, 28, 29, 30, 8, 12, 13, 17, 18, 19, 21, 25, 30, 1, 2, 6, 12, 16, 22, 23, 26, 30, 1, 3, 5, 6, 10, 23, 27, 28, 30, 3, 8, 12, 17, 19, 22, 26, 29, 30, 1, 9, 14, 15, 16, 21, 22, 26, 27, 4, 5, 6, 7, 8, 11, 13, 16, 17, 1, 2, 5, 11, 12, 24, 26, 28, 30, 10, 14, 15, 16, 19, 20, 21, 26, 29, 7, 8, 9, 12, 13, 15, 20, 28, 30, 4, 12, 15, 16, 17, 23, 27, 29, 30, 3, 4, 7, 10, 16, 21, 26, 27, 28, 1, 2, 4, 6, 7, 17, 18, 25, 30, 1, 13, 14, 15, 16, 17, 18, 27, 30, 6, 7, 8, 9, 10, 11, 13, 18, 23, 2, 7, 11, 13, 14, 15, 26, 27, 30, 3, 8, 9, 10, 11, 14, 16, 21, 27, 1, 4, 5, 6, 7, 8, 19, 28, 30, 3, 5, 10, 11, 12, 15, 16, 22, 24, 3, 4, 8, 20, 22, 23, 24, 28, 29, 1, 4, 5, 6, 9, 20, 28, 29, 30, 3, 10, 12, 13, 22, 23, 27, 29, 30, 2, 3, 4, 6, 9, 10, 12, 15, 18, 6, 7, 9, 14, 15, 16, 17, 19, 23, 11, 15, 16, 19, 20, 21, 22, 28, 30, 2, 3, 4, 9, 14, 16, 19, 22, 24, 8, 12, 14, 15, 18, 19, 24, 29, 30, 1, 3, 7, 8, 9, 11, 20, 21, 30, 2, 4, 15, 16, 20, 21, 24, 28, 29, 2, 3, 4, 7, 13, 16, 19, 20, 26, 2, 5, 11, 12, 13, 17, 18, 20, 27, 3, 5, 10, 11, 12, 15, 21, 27, 30, 1, 5, 6, 7, 8, 11, 13, 19, 30];
rreq = [|2, 1, 1, 1, 1, 1, 1, 1, 1, 24, 24, 23, 23, 22, 22, 21, 20, 20, 27, 25, 25, 24, 23, 22, 21, 21, 20, 30, 29, 28, 26, 25, 25, 24, 23, 21, 28, 25, 22, 18, 18, 14, 12, 9, 5, 22, 20, 20, 19, 19, 19, 18, 18, 17, 25, 25, 25, 25, 25, 24, 24, 24, 24, 10, 10, 9, 9, 8, 8, 8, 7, 7, 27, 21, 19, 17, 13, 13, 10, 7, 5, 22, 19, 17, 14, 10, 10, 7, 3, 2, 15, 15, 12, 12, 9, 8, 6, 5, 5, 25, 23, 20, 20, 16, 14, 13, 11, 10, 15, 13, 12, 11, 8, 6, 5, 5, 3, 20, 16, 16, 13, 12, 11, 9, 9, 7, 19, 19, 19, 19, 18, 18, 18, 18, 18, 16, 15, 14, 13, 13, 11, 11, 9, 8, 23, 19, 18, 14, 14, 11, 9, 8, 6, 14, 13, 13, 13, 12, 11, 11, 9, 9, 26, 24, 23, 22, 19, 18, 16, 15, 15, 24, 23, 20, 20, 18, 16, 14, 13, 12, 17, 16, 15, 15, 14, 14, 14, 13, 13, 22, 19, 19, 16, 15, 13, 11, 7, 6, 29, 25, 24, 23, 22, 19, 19, 15, 15, 27, 27, 25, 20, 18, 17, 15, 11, 9, 13, 10, 10, 9, 8, 6, 6, 5, 3, 22, 20, 18, 17, 16, 14, 12, 9, 7, 26, 23, 21, 21, 19, 17, 13, 12, 10, 28, 24, 24, 22, 18, 15, 12, 10, 9, 11, 10, 8, 7, 6, 5, 4, 3, 3, 18, 17, 17, 17, 17, 17, 17, 17, 17, 15, 14, 12, 11, 10, 9, 8, 8, 7, 27, 25, 24, 23, 22, 21, 20, 19, 19, 15, 14, 12, 11, 11, 11, 9, 8, 8, 26, 26, 26, 26, 26, 26, 26, 26, 26, 12, 9, 8, 8, 5, 4, 4, 2, 1, 15, 15, 15, 15, 14, 14, 14, 14, 14, 29, 26, 25, 25, 24, 22, 22, 21, 19, 23, 21, 18, 17, 14, 12, 10, 6, 4, 9, 8, 8, 7, 6, 5, 5, 4, 3, 15, 14, 14, 14, 13, 13, 13, 12, 12, 25, 25, 24, 21, 20, 19, 16, 16, 15, 15, 13, 13, 9, 8, 8, 5, 4, 1, 4, 4, 4, 4, 4, 4, 4, 4, 4, 26, 24, 22, 22, 19, 18, 15, 12, 11, 19, 18, 16, 16, 15, 14, 12, 12, 10, 17, 16, 16, 16, 16, 15, 15, 15, 15, 29, 27, 24, 23, 21, 19, 18, 15, 14, 15, 15, 14, 14, 14, 13, 12, 12, 12, 12, 11, 11, 11, 11, 11, 11, 11, 11, 29, 27, 25, 22, 22, 21, 19, 17, 15
 |26, 26, 26, 26, 26, 26, 26, 26, 26, 29, 26, 24, 22, 19, 17, 16, 13, 10, 26, 25, 23, 23, 20, 19, 18, 18, 16, 28, 27, 26, 24, 24, 22, 22, 21, 19, 27, 26, 24, 20, 16, 14, 11, 10, 7, 19, 18, 18, 18, 17, 17, 17, 17, 17, 11, 11, 11, 11, 11, 10, 10, 10, 10, 19, 18, 17, 16, 16, 15, 13, 12, 12, 16, 13, 13, 11, 11, 10, 9, 7, 7, 27, 25, 24, 21, 20, 18, 14, 13, 10, 5, 4, 4, 4, 3, 3, 3, 3, 3, 4, 4, 4, 3, 2, 2, 2, 1, 1, 10, 9, 8, 7, 7, 6, 5, 5, 4, 22, 20, 20, 17, 15, 15, 12, 11, 10, 28, 27, 26, 25, 25, 24, 22, 21, 21, 14, 12, 10, 10, 9, 7, 5, 5, 4, 16, 16, 15, 13, 12, 12, 11, 10, 9, 6, 6, 6, 5, 4, 4, 3, 3, 3, 14, 13, 12, 12, 10, 10, 10, 8, 8, 26, 26, 26, 26, 25, 25, 24, 24, 24, 11, 10, 10, 9, 9, 9, 9, 8, 8, 30, 29, 27, 26, 26, 25, 23, 23, 22, 20, 18, 15, 14, 10, 8, 6, 5, 4, 19, 17, 16, 14, 12, 10, 8, 5, 5, 27, 25, 20, 17, 14, 11, 7, 5, 1, 11, 10, 9, 8, 7, 5, 4, 3, 2, 12, 11, 10, 8, 8, 6, 6, 5, 4, 30, 23, 22, 20, 16, 14, 8, 6, 3, 22, 20, 20, 20, 19, 18, 18, 18, 17, 22, 20, 17, 16, 14, 12, 12, 8, 7, 25, 25, 23, 23, 21, 20, 19, 18, 17, 11, 11, 11, 10, 10, 9, 9, 8, 8, 10, 9, 8, 7, 6, 6, 5, 5, 4, 16, 14, 12, 11, 9, 8, 7, 5, 5, 14, 12, 11, 10, 9, 6, 6, 5, 3, 2, 2, 2, 2, 2, 2, 2, 2, 2, 23, 23, 20, 19, 17, 15, 14, 13, 12, 29, 27, 26, 26, 24, 24, 22, 21, 21, 29, 27, 27, 26, 26, 26, 25, 25, 24, 29, 27, 22, 22, 18, 16, 13, 10, 9, 16, 15, 14, 13, 12, 12, 11, 9, 9, 14, 14, 14, 14, 14, 14, 14, 14, 14, 20, 18, 18, 18, 17, 16, 16, 15, 15, 18, 16, 16, 14, 12, 11, 9, 8, 8, 11, 10, 9, 9, 8, 8, 8, 7, 7, 28, 27, 27, 27, 26, 26, 26, 26, 26, 25, 25, 24, 24, 23, 23, 22, 22, 22, 28, 26, 24, 23, 22, 20, 19, 15, 15, 24, 24, 24, 23, 23, 23, 23, 22, 22, 29, 27, 27, 26, 26, 25, 25, 24, 24
 |23, 20, 19, 19, 16, 16, 15, 13, 13, 18, 18, 18, 18, 18, 18, 18, 18, 18, 26, 25, 23, 22, 19, 18, 14, 12, 12, 21, 18, 17, 17, 14, 13, 13, 11, 10, 29, 25, 21, 19, 16, 14, 10, 6, 5, 15, 14, 14, 14, 13, 13, 12, 12, 12, 16, 15, 13, 13, 11, 10, 8, 7, 5, 15, 14, 12, 12, 10, 8, 7, 7, 5, 17, 17, 15, 15, 13, 12, 11, 11, 10, 17, 16, 16, 16, 15, 15, 15, 15, 15, 29, 28, 27, 27, 26, 26, 25, 25, 25, 24, 19, 17, 14, 12, 11, 8, 6, 3, 29, 28, 28, 27, 27, 27, 27, 26, 26, 25, 21, 19, 18, 17, 15, 12, 10, 9, 20, 18, 18, 17, 15, 14, 13, 12, 11, 26, 24, 24, 23, 20, 20, 19, 17, 17, 29, 28, 28, 28, 27, 27, 27, 26, 26, 23, 21, 18, 16, 15, 15, 12, 10, 9, 24, 19, 17, 16, 13, 9, 9, 6, 4, 28, 24, 19, 16, 16, 13, 10, 6, 1, 25, 25, 25, 25, 24, 24, 24, 24, 24, 26, 24, 24, 23, 23, 22, 22, 21, 20, 11, 10, 10, 10, 10, 10, 10, 10, 10, 25, 23, 22, 21, 20, 20, 19, 17, 17, 21, 19, 19, 19, 18, 18, 17, 17, 16, 14, 13, 12, 11, 11, 9, 8, 8, 7, 28, 27, 25, 24, 24, 23, 23, 22, 21, 6, 6, 5, 5, 3, 3, 3, 2, 1, 20, 16, 15, 15, 12, 12, 9, 9, 6, 13, 13, 11, 10, 10, 10, 9, 7, 7, 29, 27, 23, 22, 21, 18, 17, 13, 13, 28, 27, 26, 25, 25, 24, 22, 22, 21, 10, 10, 9, 8, 8, 7, 7, 5, 5, 24, 19, 18, 14, 13, 9, 6, 6, 2, 24, 21, 18, 17, 14, 12, 10, 10, 8, 24, 20, 20, 18, 13, 11, 10, 7, 6, 4, 4, 4, 4, 4, 4, 4, 4, 4, 20, 18, 17, 16, 14, 13, 12, 10, 8, 9, 8, 8, 7, 6, 6, 5, 5, 4, 19, 17, 15, 14, 14, 13, 11, 10, 9, 23, 22, 22, 21, 21, 21, 20, 20, 20, 14, 14, 12, 12, 11, 8, 7, 7, 5, 19, 18, 17, 14, 14, 13, 11, 10, 9, 27, 27, 23, 21, 16, 15, 11, 9, 3, 17, 17, 16, 16, 15, 15, 14, 14, 14, 26, 24, 23, 22, 20, 19, 16, 15, 15, 25, 23, 22, 17, 13, 10, 8, 6, 1, 27, 26, 25, 24, 21, 20, 20, 19, 17, 20, 17, 16, 15, 15, 14, 12, 12, 11, 18, 16, 14, 13, 12, 10, 8, 7, 5
 |25, 24, 23, 22, 20, 19, 18, 18, 17, 27, 27, 27, 27, 27, 27, 27, 27, 27, 19, 19, 19, 19, 19, 19, 19, 19, 19, 26, 24, 23, 21, 16, 16, 14, 9, 8, 22, 21, 20, 17, 14, 12, 12, 9, 7, 24, 24, 24, 23, 22, 22, 22, 21, 21, 25, 24, 24, 23, 23, 23, 22, 21, 21, 23, 22, 22, 21, 19, 18, 17, 17, 15, 16, 16, 15, 14, 13, 13, 12, 12, 11, 24, 21, 20, 17, 17, 15, 12, 11, 9, 11, 11, 10, 9, 8, 7, 5, 4, 4, 4, 4, 4, 3, 2, 2, 2, 1, 1, 23, 21, 19, 19, 17, 14, 11, 10, 9, 22, 18, 16, 16, 13, 10, 8, 5, 3, 24, 24, 24, 24, 23, 23, 23, 22, 22, 24, 24, 23, 21, 19, 17, 16, 15, 13, 8, 7, 7, 5, 4, 4, 2, 1, 1, 9, 8, 7, 5, 5, 4, 2, 2, 1, 27, 23, 22, 18, 15, 11, 10, 5, 4, 29, 25, 23, 19, 13, 10, 7, 5, 3, 9, 8, 8, 8, 8, 8, 8, 8, 8, 22, 21, 21, 21, 20, 19, 19, 19, 18, 22, 22, 22, 22, 21, 21, 21, 21, 21, 16, 15, 15, 13, 11, 10, 9, 8, 7, 21, 20, 19, 17, 16, 16, 14, 14, 12, 29, 28, 28, 28, 28, 28, 28, 28, 28, 21, 18, 16, 14, 11, 9, 8, 7, 5, 21, 21, 21, 21, 21, 21, 21, 21, 21, 13, 10, 10, 7, 7, 5, 4, 2, 1, 24, 24, 23, 23, 22, 22, 22, 21, 21, 12, 12, 10, 9, 8, 7, 7, 5, 4, 22, 22, 17, 16, 14, 11, 7, 4, 3, 12, 11, 10, 10, 10, 9, 9, 8, 8, 22, 21, 20, 20, 18, 18, 17, 15, 15, 9, 8, 6, 6, 5, 5, 4, 2, 2, 22, 21, 18, 15, 12, 12, 9, 6, 5, 16, 13, 13, 9, 8, 7, 4, 4, 2, 26, 23, 22, 19, 17, 15, 14, 11, 9, 16, 16, 16, 16, 15, 15, 15, 15, 15, 24, 23, 22, 21, 20, 20, 19, 18, 18, 11, 10, 10, 10, 10, 10, 10, 10, 10, 6, 6, 6, 6, 6, 5, 5, 5, 5, 29, 28, 28, 28, 27, 26, 26, 25, 25, 3, 3, 3, 2, 2, 2, 2, 1, 1, 25, 20, 19, 16, 12, 10, 6, 5, 2, 20, 18, 17, 15, 15, 13, 12, 9, 8, 28, 27, 25, 25, 24, 21, 20, 19, 17, 19, 18, 18, 17, 16, 16, 16, 15, 15, 16, 16, 16, 16, 16, 16, 16, 16, 16, 29, 27, 23, 23, 21, 19, 15, 13, 13
 |12, 10, 10, 9, 8, 8, 7, 6, 5, 4, 4, 4, 4, 3, 3, 2, 2, 2, 8, 8, 8, 8, 8, 8, 8, 8, 8, 1, 1, 1, 1, 1, 1, 1, 1, 1, 9, 8, 8, 8, 8, 8, 8, 8, 8, 26, 26, 25, 23, 20, 19, 17, 16, 15, 27, 25, 25, 23, 22, 22, 20, 19, 18, 13, 12, 10, 8, 7, 6, 5, 3, 2, 16, 15, 14, 14, 13, 13, 12, 12, 12, 25, 24, 21, 19, 17, 14, 12, 10, 6, 25, 24, 22, 20, 18, 18, 15, 14, 14, 29, 28, 27, 26, 26, 24, 24, 22, 21, 27, 23, 19, 16, 16, 14, 9, 8, 6, 28, 28, 27, 27, 27, 26, 25, 25, 25, 25, 25, 25, 25, 25, 25, 25, 25, 25, 27, 25, 25, 24, 24, 23, 23, 22, 22, 6, 5, 5, 5, 4, 4, 4, 3, 3, 18, 16, 16, 15, 13, 12, 11, 9, 8, 20, 19, 18, 15, 14, 12, 10, 7, 6, 8, 7, 7, 7, 7, 7, 7, 7, 7, 6, 5, 5, 5, 5, 5, 5, 5, 5, 25, 25, 22, 21, 20, 18, 17, 16, 14, 22, 21, 21, 21, 20, 20, 20, 20, 20, 24, 23, 23, 22, 21, 21, 20, 20, 19, 28, 26, 24, 24, 21, 21, 18, 17, 17, 20, 16, 16, 14, 13, 11, 9, 7, 7, 26, 25, 25, 24, 24, 24, 24, 23, 23, 18, 14, 13, 12, 10, 8, 8, 5, 4, 24, 23, 19, 18, 15, 13, 11, 9, 9, 26, 24, 22, 20, 17, 16, 14, 9, 8, 25, 25, 25, 24, 23, 23, 23, 22, 22, 9, 9, 7, 6, 6, 5, 4, 4, 3, 24, 22, 19, 17, 15, 13, 10, 8, 8, 18, 16, 16, 12, 10, 10, 6, 5, 2, 28, 28, 28, 28, 28, 28, 28, 28, 28, 24, 21, 21, 19, 15, 14, 9, 7, 5, 27, 25, 25, 23, 23, 22, 20, 19, 18, 18, 18, 17, 16, 15, 14, 12, 12, 11, 20, 17, 17, 16, 15, 12, 11, 10, 9, 18, 18, 15, 13, 13, 12, 10, 9, 6, 26, 26, 22, 21, 17, 14, 14, 10, 7, 9, 8, 8, 8, 8, 8, 8, 8, 8, 9, 7, 7, 6, 6, 5, 5, 5, 4, 28, 25, 22, 19, 16, 15, 12, 10, 5, 26, 26, 25, 23, 22, 21, 21, 20, 19, 19, 19, 17, 15, 13, 13, 10, 10, 8, 9, 8, 8, 8, 8, 8, 8, 8, 8, 29, 27, 27, 27, 25, 25, 25, 23, 23, 27, 24, 23, 21, 20, 19, 17, 16, 15, 25, 23, 20, 19, 19, 17, 15, 13, 12
 |16, 15, 13, 13, 12, 10, 9, 9, 7, 18, 17, 13, 13, 11, 8, 7, 5, 3, 20, 20, 20, 20, 20, 20, 20, 20, 20, 27, 25, 25, 24, 22, 22, 21, 20, 18, 28, 27, 25, 21, 20, 20, 18, 14, 13, 26, 24, 23, 23, 22, 20, 20, 19, 18, 12, 11, 11, 11, 10, 10, 9, 9, 9, 27, 25, 23, 23, 22, 21, 19, 18, 17, 27, 25, 22, 20, 18, 15, 12, 9, 8, 8, 7, 7, 5, 5, 5, 4, 2, 2, 14, 13, 12, 12, 11, 11, 10, 10, 9, 24, 21, 21, 18, 13, 12, 7, 5, 4, 28, 25, 23, 17, 15, 12, 9, 5, 3, 24, 24, 24, 24, 24, 24, 24, 24, 24, 27, 27, 27, 26, 26, 25, 25, 24, 24, 13, 13, 12, 12, 12, 11, 10, 10, 10, 4, 3, 3, 2, 2, 2, 2, 1, 1, 24, 23, 21, 21, 19, 18, 15, 14, 13, 7, 6, 6, 5, 5, 5, 4, 4, 4, 12, 11, 10, 10, 9, 8, 7, 7, 6, 22, 21, 20, 20, 19, 18, 17, 18, 17, 28, 25, 22, 18, 13, 11, 8, 7, 1, 17, 15, 13, 12, 10, 9, 9, 7, 7, 22, 21, 17, 16, 13, 10, 6, 4, 2, 22, 19, 17, 17, 14, 13, 11, 10, 7, 19, 18, 15, 14, 12, 9, 8, 5, 4, 23, 22, 20, 19, 19, 18, 17, 15, 15, 10, 8, 8, 8, 7, 7, 6, 5, 5, 24, 24, 23, 22, 20, 19, 17, 16, 16, 30, 28, 27, 25, 24, 22, 21, 20, 20, 20, 19, 18, 18, 17, 17, 16, 16, 16, 27, 26, 25, 24, 23, 23, 22, 21, 21, 26, 25, 21, 18, 16, 10, 8, 7, 2, 22, 22, 22, 22, 21, 21, 21, 21, 21, 17, 15, 15, 14, 12, 12, 11, 9, 9, 29, 27, 25, 22, 22, 18, 16, 14, 14, 25, 22, 21, 19, 17, 15, 10, 9, 6, 29, 29, 29, 29, 29, 29, 29, 29, 29, 20, 19, 18, 19, 18, 18, 18, 18, 18, 23, 22, 21, 20, 20, 20, 19, 19, 18, 15, 13, 13, 12, 10, 8, 6, 5, 4, 24, 23, 23, 22, 22, 21, 21, 20, 20, 17, 15, 15, 14, 13, 13, 12, 10, 10, 27, 23, 23, 20, 16, 12, 10, 5, 4, 15, 15, 14, 14, 13, 13, 13, 12, 12, 18, 18, 18, 17, 17, 16, 15, 15, 15, 26, 24, 24, 23, 22, 20, 19, 19, 18, 20, 18, 14, 12, 12, 9, 7, 5, 5, 20, 20, 17, 15, 12, 11, 10, 6, 6, 23, 19, 16, 13, 13, 11, 7, 5, 3|];